2 10
241 277 
0 80 78 65 96 19 75 1
1 85 58 1 1 15 2 1
2 54 8 55 87 46 76 1
3 42 93 27 40 66 90 1
4 12 70 88 13 100 99 2
5 7 20 16 74 3 50 1
6 96 23 44 50 4 2 1
7 2 74 42 12 12 58 2
8 73 19 25 94 32 72 2
9 37 40 5 87 41 99 1
